s td 13 38 50
b 1 1 2 3 4 5 6 8 10 11 12 13 14 15 16 17 18 21 23 24 25 26 27 28 30 31 33 34 35 36 37 38 39 41 42 43 46 47
b 2 1 2 4 5 6 8 9 10 11 12 13 14 15 16 17 18 21 23 24 25 26 27 28 30 31 33 34 35 36 37 38 39 41 42 43 46 47 49
b 3 1 2 5 8 9 10 11 12 13 14 15 16 17 18 21 23 24 25 26 27 28 30 31 33 34 35 36 37 38 39 41 42 43 44 46 47 49
b 4 1 2 5 8 9 10 11 12 13 14 15 16 17 18 20 21 23 24 25 27 28 30 31 33 34 35 36 37 38 39 41 42 43 44 46 47 49
b 5 1 2 5 8 9 10 11 12 13 14 15 16 17 18 20 21 23 25 27 28 30 31 33 34 36 37 38 39 41 43 44 47 49 50
b 6 1 2 5 8 9 10 12 13 14 15 16 18 20 21 23 27 28 30 31 33 34 36 37 38 39 40 43 44 47 49 50
b 7 1 2 7 8 9 10 14 15 18 20 21 23 27 30 31 33 34 36 38 40 43 44 47 49 50
b 8 1 2 10 12 15 16 21 24 25 26 28 30 32 33 34 35 36 37 38 42 44 49
b 9 4 5 6 8 9 10 11 14 15 18 19 23 33 34 39 42 43 46 47 49
b 10 1 2 4 5 14 21 25 26 28 30 31 35 36 37 45 46 49
b 11 1 3 4 5 6 8 10 12 14 21 22 24 27 28 30 35 38 39 41 42 43 46
b 12 1 3 5 6 11 12 13 15 17 18 24 26 27 28 29 30 31 34 36 37 38 39 41 43 47
b 13 1 4 10 11 12 13 14 16 17 23 24 25 26 27 28 30 31 35 37 38 39 41 47 48
1 2
1 11
1 12
1 13
2 3
2 9
2 10
3 4
3 8
4 5
5 6
6 7
